Results/Experiment 1 Results/Existing Benchmark/RES_60/i-60-75-13.txt
solutions: 0 nodes: 2  modelTime: 113  solveTime: 15  totalTime: 136  modelSize: 7854  readTime: 8 matchingSize: 0
