Results/Experiment 2 Results/Existing Benchmark/i-60-75-13.lp
clingo version 5.4.0
Reading from tempSRTISolver.lp ...
Solving...
UNSATISFIABLE

Models       : 0
Calls        : 1
Time         : 3.013s (Solving: 0.19s 1st Model: 0.00s Unsat: 0.19s)
CPU Time     : 3.012s
